letting n =  10
letting blocks =  [[2, 5], [2, 9], [3, 1], [3, 9], [4, 4], [5, 5], [5, 8], [5, 10], [6, 3], [7, 1], [7, 3], [8, 3], [8, 7], [8, 9], [8, 10], [9, 4], [9, 7], [10, 3], [10, 5], [10, 9]]
